
Gurobi 7.0.1 (mac64, Python) logging started Wed Nov  8 14:28:14 2017

Optimize a model with 36 rows, 26 columns and 108 nonzeros
Variable types: 0 continuous, 26 integer (26 binary)
Coefficient statistics:
  Matrix range     [1e+00, 1e+00]
  Objective range  [1e+00, 1e+01]
  Bounds range     [1e+00, 1e+00]
  RHS range        [2e+00, 2e+00]
Found heuristic solution: objective -0
Presolve time: 0.02s
Presolved: 36 rows, 26 columns, 108 nonzeros
Variable types: 0 continuous, 26 integer (26 binary)

Root relaxation: objective 1.140000e+02, 9 iterations, 0.01 seconds

    Nodes    |    Current Node    |     Objective Bounds      |     Work
 Expl Unexpl |  Obj  Depth IntInf | Incumbent    BestBd   Gap | It/Node Time

     0     0  114.00000    0    8   -0.00000  114.00000      -     -    0s
H    0     0                      80.0000000  114.00000  42.5%     -    0s
H    0     0                      83.0000000  114.00000  37.3%     -    0s
     0     0  110.00000    0   11   83.00000  110.00000  32.5%     -    0s
     0     0  104.00000    0   12   83.00000  104.00000  25.3%     -    0s
     0     0  103.50000    0   13   83.00000  103.50000  24.7%     -    0s
     0     0   99.00000    0   18   83.00000   99.00000  19.3%     -    0s
     0     0   96.44444    0   19   83.00000   96.44444  16.2%     -    0s
     0     0   96.33333    0   15   83.00000   96.33333  16.1%     -    0s
     0     0   95.50000    0   15   83.00000   95.50000  15.1%     -    0s
     0     0   94.50000    0   18   83.00000   94.50000  13.9%     -    0s
     0     0   94.50000    0   15   83.00000   94.50000  13.9%     -    0s
H    0     0                      84.0000000   94.50000  12.5%     -    0s
     0     0   94.00000    0   14   84.00000   94.00000  11.9%     -    0s
     0     0   94.00000    0   13   84.00000   94.00000  11.9%     -    0s
     0     0   93.83333    0   20   84.00000   93.83333  11.7%     -    0s
     0     0   93.83333    0   18   84.00000   93.83333  11.7%     -    0s
     0     2   93.83333    0   18   84.00000   93.83333  11.7%     -    0s

Cutting planes:
  Gomory: 2
  MIR: 7
  Zero half: 7

Explored 24 nodes (208 simplex iterations) in 0.07 seconds
Thread count was 4 (of 4 available processors)

Solution count 4: 84 83 80 -0 
Pool objective bound 84

Optimal solution found (tolerance 1.00e-04)
Best objective 8.400000000000e+01, best bound 8.400000000000e+01, gap 0.0000%

Gurobi 7.0.1 (mac64, Python) logging started Wed Nov  8 14:28:30 2017

Optimize a model with 36 rows, 26 columns and 108 nonzeros
Variable types: 0 continuous, 26 integer (26 binary)
Coefficient statistics:
  Matrix range     [1e+00, 1e+00]
  Objective range  [1e+00, 1e+01]
  Bounds range     [1e+00, 1e+00]
  RHS range        [2e+00, 2e+00]
Found heuristic solution: objective -0
Presolve time: 0.00s
Presolved: 36 rows, 26 columns, 108 nonzeros
Variable types: 0 continuous, 26 integer (26 binary)

Root relaxation: objective 1.140000e+02, 9 iterations, 0.00 seconds

    Nodes    |    Current Node    |     Objective Bounds      |     Work
 Expl Unexpl |  Obj  Depth IntInf | Incumbent    BestBd   Gap | It/Node Time

     0     0  114.00000    0    8   -0.00000  114.00000      -     -    0s
H    0     0                      80.0000000  114.00000  42.5%     -    0s
H    0     0                      83.0000000  114.00000  37.3%     -    0s
     0     0  110.00000    0   11   83.00000  110.00000  32.5%     -    0s
     0     0  104.00000    0   12   83.00000  104.00000  25.3%     -    0s
     0     0  103.50000    0   13   83.00000  103.50000  24.7%     -    0s
     0     0   99.00000    0   18   83.00000   99.00000  19.3%     -    0s
     0     0   96.44444    0   19   83.00000   96.44444  16.2%     -    0s
     0     0   96.33333    0   15   83.00000   96.33333  16.1%     -    0s
     0     0   95.50000    0   15   83.00000   95.50000  15.1%     -    0s
     0     0   94.50000    0   18   83.00000   94.50000  13.9%     -    0s
     0     0   94.50000    0   15   83.00000   94.50000  13.9%     -    0s
H    0     0                      84.0000000   94.50000  12.5%     -    0s
     0     0   94.00000    0   14   84.00000   94.00000  11.9%     -    0s
     0     0   94.00000    0   13   84.00000   94.00000  11.9%     -    0s
     0     0   93.83333    0   20   84.00000   93.83333  11.7%     -    0s
     0     0   93.83333    0   18   84.00000   93.83333  11.7%     -    0s
     0     2   93.83333    0   18   84.00000   93.83333  11.7%     -    0s

Cutting planes:
  Gomory: 2
  MIR: 7
  Zero half: 7

Explored 24 nodes (208 simplex iterations) in 0.03 seconds
Thread count was 4 (of 4 available processors)

Solution count 4: 84 83 80 -0 
Pool objective bound 84

Optimal solution found (tolerance 1.00e-04)
Best objective 8.400000000000e+01, best bound 8.400000000000e+01, gap 0.0000%

Gurobi 6.5.2 (mac64) logging started Tue Nov 14 04:42:20 2017


Gurobi 6.5.2 (mac64) logging started Tue Nov 14 04:42:39 2017


Gurobi 6.5.2 (mac64) logging started Tue Nov 14 04:45:46 2017


Gurobi 6.5.2 (mac64) logging started Tue Nov 14 04:52:53 2017

Optimize a model with 36 rows, 26 columns and 108 nonzeros
Coefficient statistics:
  Matrix range    [1e+00, 1e+00]
  Objective range [1e+00, 1e+01]
  Bounds range    [1e+00, 1e+00]
  RHS range       [2e+00, 2e+00]
Found heuristic solution: objective -0
Presolve time: 0.01s
Presolved: 36 rows, 26 columns, 108 nonzeros
Variable types: 0 continuous, 26 integer (26 binary)

Root relaxation: objective 1.140000e+02, 9 iterations, 0.00 seconds

    Nodes    |    Current Node    |     Objective Bounds      |     Work
 Expl Unexpl |  Obj  Depth IntInf | Incumbent    BestBd   Gap | It/Node Time

     0     0  114.00000    0    8   -0.00000  114.00000      -     -    0s
H    0     0                      80.0000000  114.00000  42.5%     -    0s
H    0     0                      83.0000000  114.00000  37.3%     -    0s
     0     0  110.00000    0   11   83.00000  110.00000  32.5%     -    0s
     0     0  104.00000    0   12   83.00000  104.00000  25.3%     -    0s
     0     0  103.50000    0   13   83.00000  103.50000  24.7%     -    0s
     0     0   99.00000    0   18   83.00000   99.00000  19.3%     -    0s
     0     0   96.66667    0   16   83.00000   96.66667  16.5%     -    0s
H    0     0                      84.0000000   96.66667  15.1%     -    0s
     0     0   95.50000    0   16   84.00000   95.50000  13.7%     -    0s
     0     0   94.66667    0   15   84.00000   94.66667  12.7%     -    0s
     0     0   94.66667    0   14   84.00000   94.66667  12.7%     -    0s
     0     0   94.28571    0   20   84.00000   94.28571  12.2%     -    0s
     0     0   94.00000    0   15   84.00000   94.00000  11.9%     -    0s
     0     0   93.25000    0   18   84.00000   93.25000  11.0%     -    0s
     0     0   93.20000    0   18   84.00000   93.20000  11.0%     -    0s
     0     0   93.00000    0   14   84.00000   93.00000  10.7%     -    0s
     0     0   92.83333    0   21   84.00000   92.83333  10.5%     -    0s
     0     0   92.83333    0   21   84.00000   92.83333  10.5%     -    0s
     0     2   92.83333    0   21   84.00000   92.83333  10.5%     -    0s

Cutting planes:
  Gomory: 1
  MIR: 7
  Zero half: 11

Explored 32 nodes (261 simplex iterations) in 0.08 seconds
Thread count was 4 (of 4 available processors)

Optimal solution found (tolerance 1.00e-04)
Best objective 8.400000000000e+01, best bound 8.400000000000e+01, gap 0.0%
